0,1,8,1,6,1,9,2,1,5,1,8,7,2,1,3,7
1,8,0,2,9,1,8,3,8,7,4,3,4,5,2,4,3
1,6,2,9,0,4,5,7,7,2,1,3,1,7,3,4
1,9,1,8,4,5,0,1,8,2,3,2,2,5,2,3,2,8
2,1,3,8,7,1,8,0,3,3,3,2,2,3,1,7,2,8
5,7,7,2,3,3,3,0,8,3,9,3,8,3,9
1,8,4,3,2,2,3,2,8,0,1,3,2,4,2,0
7,4,5,1,3,2,5,2,3,3,9,1,3,0,1,8,1,7
2,1,2,1,7,2,3,1,7,3,8,2,4,1,8,0,3,3
3,7,4,3,3,4,2,8,2,8,3,9,2,0,1,7,3,3,0
